instances/p2/p2_15_8-1.dzn
Alphabet = {A,C,G,T};
ns = 15;
nc = 7;
neighbours = [| I(G),Null,Null,Null,Null,Null,Null | I(T),I(G),I(G),I(A),I(T),Null,Null | Null,Null,Null,Null,Null,Null,Null | I(G),I(T),I(G),I(G),I(G),I(A),I(A) | I(T),I(G),I(T),I(C),I(G),I(T),Null | I(G),I(T),I(T),I(T),I(T),I(G),Null | I(G),I(C),I(G),I(G),Null,Null,Null | I(C),I(T),Null,Null,Null,Null,Null | I(T),I(C),I(C),I(A),I(G),Null,Null | I(T),I(G),I(T),I(T),I(G),I(G),Null | I(T),I(C),Null,Null,Null,Null,Null | I(G),I(T),I(G),I(C),I(G),Null,Null | I(T),I(A),I(A),I(T),I(C),I(G),Null | I(T),I(T),I(A),I(G),I(A),Null,Null | I(T),I(C),I(A),I(A),I(C),I(C),Null |];
